p edge 1205
e 0 200
e 0 253
e 0 863
e 0 865
e 1 82
e 1 88
e 1 90
e 1 451
e 1 459
e 1 489
e 1 1103
e 2 44
e 2 137
e 2 138
e 2 426
e 2 427
e 2 428
e 3 43
e 3 46
e 3 47
e 4 17
e 4 22
e 4 316
e 4 918
e 4 1075
e 5 6
e 5 645
e 5 646
e 5 647
e 6 646
e 6 647
e 6 649
e 6 650
e 7 8
e 7 1053
e 7 1141
e 8 195
e 8 876
e 8 1053
e 9 10
e 9 341
e 9 581
e 9 602
e 9 603
e 10 11
e 10 12
e 10 47
e 10 341
e 10 594
e 10 603
e 10 1108
e 11 13
e 11 47
e 11 294
e 11 1108
e 11 1111
e 13 15
e 13 17
e 13 294
e 13 1047
e 13 1111
e 14 19
e 14 20
e 14 316
e 14 1071
e 14 1072
e 14 1074
e 15 17
e 15 18
e 15 819
e 15 918
e 15 1073
e 15 1074
e 15 1111
e 16 17
e 16 128
e 16 129
e 16 231
e 16 316
e 16 1046
e 17 316
e 17 1046
e 17 1047
e 18 819
e 18 1073
e 19 231
e 19 1071
e 19 1152
e 19 1169
e 20 1072
e 20 1074
e 20 1112
e 20 1114
e 21 22
e 21 819
e 21 1073
e 21 1075
e 22 918
e 22 1075
e 23 25
e 23 92
e 23 629
e 23 630
e 23 631
e 24 92
e 24 626
e 24 629
e 24 630
e 24 1053
e 24 1120
e 24 1141
e 25 629
e 25 631
e 26 27
e 26 28
e 26 29
e 26 30
e 26 343
e 26 345
e 26 430
e 26 431
e 26 546
e 26 759
e 26 760
e 27 241
e 27 430
e 27 546
e 27 580
e 28 29
e 28 30
e 29 30
e 31 33
e 31 334
e 31 336
e 31 421
e 31 520
e 31 831
e 32 34
e 32 334
e 32 335
e 32 336
e 32 828
e 33 334
e 34 335
e 35 893
e 35 894
e 35 899
e 35 909
e 36 186
e 36 209
e 36 303
e 36 999
e 37 266
e 37 281
e 37 286
e 37 789
e 38 369
e 38 569
e 38 879
e 38 888
e 39 41
e 39 45
e 39 48
e 39 50
e 39 574
e 39 576
e 40 42
e 40 51
e 40 136
e 40 137
e 40 138
e 40 427
e 40 429
e 41 48
e 41 576
e 41 1020
e 41 1158
e 42 45
e 42 46
e 42 50
e 42 51
e 42 429
e 42 570
e 43 46
e 43 47
e 43 50
e 44 46
e 44 387
e 44 389
e 44 426
e 44 428
e 44 518
e 44 778
e 45 50
e 45 570
e 45 574
e 46 47
e 46 50
e 46 428
e 46 429
e 46 518
e 47 50
e 47 294
e 47 298
e 47 518
e 47 594
e 48 50
e 48 1158
e 49 135
e 49 136
e 49 371
e 49 426
e 49 427
e 49 790
e 50 298
e 50 1158
e 51 136
e 51 204
e 51 388
e 52 53
e 52 57
e 52 141
e 52 535
e 52 1106
e 53 57
e 53 175
e 53 176
e 53 1104
e 53 1106
e 54 56
e 54 58
e 54 499
e 54 668
e 54 669
e 55 668
e 55 669
e 56 173
e 56 498
e 56 499
e 56 669
e 57 173
e 57 176
e 57 498
e 57 535
e 58 60
e 58 499
e 58 561
e 58 668
e 59 60
e 59 61
e 59 668
e 60 61
e 60 668
e 61 668
e 61 669
e 62 63
e 62 64
e 62 65
e 62 317
e 63 64
e 63 65
e 63 703
e 64 174
e 64 317
e 64 504
e 64 703
e 65 317
e 65 703
e 65 705
e 65 1142
e 66 67
e 66 703
e 66 705
e 66 706
e 66 1130
e 67 1130
e 68 69
e 68 71
e 68 73
e 68 513
e 68 515
e 69 70
e 69 71
e 69 72
e 69 509
e 69 513
e 69 1147
e 70 72
e 70 508
e 70 601
e 70 1054
e 71 73
e 71 251
e 71 511
e 71 512
e 71 515
e 71 572
e 71 604
e 71 1147
e 72 180
e 72 539
e 72 1054
e 72 1144
e 72 1147
e 72 1149
e 73 515
e 74 118
e 74 363
e 74 556
e 74 557
e 74 793
e 74 795
e 74 859
e 74 860
e 74 1193
e 74 1194
e 75 118
e 75 434
e 75 502
e 75 711
e 75 793
e 75 847
e 76 96
e 76 439
e 76 803
e 76 978
e 76 981
e 76 987
e 76 1129
e 77 475
e 77 861
e 77 862
e 77 1178
e 77 1188
e 77 1196
e 78 695
e 78 708
e 78 709
e 78 834
e 78 838
e 78 839
e 79 709
e 79 710
e 79 794
e 79 834
e 80 83
e 80 432
e 80 444
e 80 478
e 80 1125
e 81 82
e 81 89
e 81 90
e 81 365
e 81 667
e 81 835
e 82 88
e 82 432
e 82 444
e 83 86
e 83 433
e 83 444
e 83 478
e 84 87
e 84 93
e 84 451
e 85 94
e 85 95
e 85 477
e 85 980
e 86 87
e 86 93
e 86 477
e 87 88
e 87 444
e 88 444
e 88 451
e 89 90
e 89 118
e 89 363
e 89 365
e 90 118
e 90 459
e 90 489
e 90 1103
e 91 92
e 91 627
e 91 628
e 91 704
e 91 705
e 91 1143
e 92 628
e 92 629
e 92 630
e 92 1140
e 92 1141
e 92 1143
e 93 94
e 93 98
e 93 451
e 94 95
e 94 97
e 94 477
e 95 96
e 95 358
e 95 980
e 96 97
e 96 803
e 96 978
e 97 98
e 97 978
e 98 117
e 98 132
e 98 451
e 99 100
e 99 196
e 99 197
e 99 226
e 99 227
e 99 330
e 100 104
e 100 226
e 100 1053
e 100 1119
e 101 102
e 101 104
e 102 104
e 103 104
e 103 320
e 103 923
e 103 948
e 103 1119
e 103 1120
e 104 226
e 104 227
e 104 897
e 104 948
e 104 1119
e 105 434
e 105 445
e 106 109
e 106 377
e 106 565
e 106 898
e 106 914
e 106 922
e 106 930
e 106 1013
e 107 112
e 107 913
e 107 931
e 108 110
e 108 113
e 108 115
e 108 131
e 109 112
e 109 113
e 109 114
e 109 115
e 109 130
e 109 131
e 109 913
e 109 914
e 109 930
e 109 1022
e 109 1177
e 110 111
e 110 112
e 110 131
e 110 913
e 111 112
e 111 913
e 112 113
e 112 913
e 112 930
e 113 114
e 113 130
e 114 115
e 114 1022
e 114 1177
e 115 131
e 116 360
e 116 443
e 116 587
e 116 609
e 117 132
e 117 134
e 117 445
e 117 451
e 117 459
e 117 480
e 118 363
e 118 434
e 118 459
e 118 793
e 119 605
e 119 680
e 119 736
e 119 1038
e 120 482
e 120 571
e 120 585
e 120 807
e 121 465
e 121 588
e 121 611
e 121 624
e 121 676
e 122 123
e 122 251
e 122 263
e 122 265
e 122 572
e 122 1097
e 123 124
e 123 863
e 123 866
e 124 254
e 124 804
e 124 805
e 124 1097
e 125 229
e 125 230
e 125 746
e 125 747
e 125 1040
e 125 1042
e 125 1043
e 125 1044
e 126 127
e 126 129
e 126 359
e 126 368
e 126 414
e 126 494
e 126 501
e 126 1046
e 127 129
e 127 1046
e 128 129
e 128 252
e 128 491
e 128 492
e 129 492
e 129 494
e 130 1177
e 131 913
e 132 133
e 132 134
e 132 978
e 133 134
e 133 445
e 133 794
e 133 978
e 134 445
e 134 480
e 135 136
e 135 206
e 135 402
e 135 790
e 136 204
e 136 205
e 136 206
e 136 427
e 137 138
e 137 428
e 137 429
e 138 427
e 139 140
e 139 143
e 139 342
e 139 1133
e 139 1134
e 139 1136
e 140 150
e 140 342
e 140 615
e 140 694
e 140 852
e 140 1136
e 141 145
e 141 534
e 141 535
e 141 1101
e 141 1106
e 142 143
e 142 144
e 142 146
e 142 532
e 142 533
e 142 534
e 142 535
e 143 146
e 143 342
e 143 535
e 143 1134
e 144 147
e 144 148
e 144 532
e 144 533
e 145 146
e 145 534
e 145 581
e 145 947
e 145 1101
e 145 1117
e 146 340
e 146 341
e 146 342
e 146 534
e 146 581
e 147 148
e 147 532
e 147 534
e 148 533
e 148 534
e 149 175
e 149 176
e 149 177
e 149 314
e 150 151
e 150 617
e 150 694
e 150 851
e 150 852
e 150 1021
e 151 541
e 151 851
e 151 852
e 152 153
e 152 348
e 152 1045
e 152 1095
e 153 158
e 153 160
e 153 311
e 153 322
e 153 352
e 153 1045
e 154 162
e 154 163
e 154 352
e 154 354
e 154 357
e 155 156
e 155 162
e 155 217
e 155 354
e 156 162
e 156 217
e 156 351
e 156 1092
e 156 1093
e 157 159
e 157 160
e 157 1045
e 158 160
e 158 309
e 158 311
e 158 521
e 158 522
e 158 592
e 158 593
e 159 160
e 159 319
e 159 350
e 159 510
e 159 519
e 159 522
e 159 725
e 159 1045
e 160 522
e 160 1045
e 161 163
e 161 311
e 161 352
e 161 353
e 162 354
e 162 1091
e 163 352
e 163 353
e 163 354
e 164 219
e 164 270
e 164 307
e 164 1098
e 165 219
e 165 260
e 165 270
e 165 1068
e 165 1085
e 166 167
e 166 246
e 166 248
e 166 250
e 166 272
e 166 273
e 166 274
e 167 168
e 167 246
e 167 247
e 167 273
e 167 545
e 167 1148
e 168 169
e 168 247
e 169 178
e 169 247
e 169 545
e 169 1069
e 169 1126
e 169 1151
e 170 171
e 170 498
e 170 499
e 170 562
e 170 563
e 170 1134
e 170 1135
e 172 174
e 172 177
e 172 504
e 173 176
e 173 498
e 173 505
e 173 506
e 174 317
e 174 504
e 175 176
e 175 177
e 175 315
e 175 504
e 175 1104
e 175 1107
e 176 177
e 176 314
e 176 505
e 177 314
e 177 504
e 177 505
e 177 506
e 178 249
e 178 260
e 178 275
e 178 1085
e 178 1099
e 178 1126
e 179 275
e 179 1128
e 179 1147
e 179 1150
e 180 272
e 180 1128
e 180 1144
e 180 1146
e 180 1147
e 180 1150
e 181 183
e 181 205
e 181 892
e 182 183
e 182 189
e 182 205
e 182 206
e 183 205
e 183 206
e 183 566
e 183 1004
e 183 1005
e 184 185
e 184 821
e 184 1005
e 184 1012
e 184 1123
e 185 186
e 185 303
e 185 908
e 186 302
e 186 303
e 186 907
e 187 214
e 187 300
e 187 901
e 187 906
e 188 565
e 188 728
e 188 872
e 188 873
e 188 912
e 188 1124
e 189 205
e 189 206
e 190 290
e 190 291
e 190 370
e 190 873
e 191 372
e 191 373
e 191 374
e 191 996
e 191 998
e 192 193
e 192 194
e 192 199
e 192 875
e 192 876
e 193 875
e 193 876
e 194 195
e 194 197
e 194 198
e 194 199
e 194 324
e 194 876
e 195 196
e 195 197
e 195 876
e 195 1053
e 196 197
e 196 1053
e 197 198
e 197 330
e 198 324
e 198 330
e 199 324
e 199 875
e 200 253
e 200 590
e 200 863
e 201 220
e 201 299
e 201 370
e 201 883
e 202 291
e 202 292
e 202 369
e 202 811
e 202 878
e 202 912
e 203 204
e 203 205
e 203 1000
e 203 1077
e 204 205
e 204 388
e 204 391
e 205 206
e 205 304
e 205 889
e 205 891
e 205 1077
e 206 208
e 206 402
e 207 286
e 207 288
e 207 371
e 207 400
e 207 411
e 207 771
e 207 1014
e 207 1015
e 208 567
e 208 1005
e 208 1012
e 209 210
e 209 267
e 209 302
e 210 211
e 210 213
e 210 268
e 211 212
e 211 301
e 211 302
e 212 213
e 212 301
e 212 871
e 213 405
e 213 832
e 214 301
e 214 302
e 214 907
e 215 216
e 215 220
e 215 300
e 215 901
e 216 232
e 216 305
e 216 775
e 216 810
e 216 1001
e 217 309
e 217 310
e 217 311
e 217 350
e 217 351
e 217 354
e 217 849
e 217 968
e 218 310
e 218 350
e 218 1096
e 219 260
e 219 584
e 219 848
e 219 1098
e 219 1131
e 220 810
e 220 884
e 221 224
e 221 306
e 221 401
e 221 1007
e 222 398
e 222 920
e 222 944
e 222 994
e 222 996
e 222 1007
e 223 224
e 223 305
e 223 994
e 223 996
e 224 232
e 224 994
e 225 233
e 225 236
e 225 237
e 225 384
e 226 227
e 227 329
e 227 897
e 227 950
e 227 951
e 227 954
e 227 963
e 228 351
e 228 1089
e 228 1090
e 228 1091
e 228 1092
e 228 1094
e 229 747
e 229 749
e 229 1043
e 229 1052
e 230 563
e 230 1040
e 230 1042
e 230 1135
e 230 1136
e 231 252
e 231 316
e 231 1169
e 232 305
e 232 401
e 232 775
e 233 776
e 233 784
e 233 937
e 234 235
e 234 245
e 234 405
e 234 568
e 234 1002
e 235 244
e 235 405
e 235 832
e 236 240
e 236 245
e 236 1002
e 237 240
e 237 776
e 237 782
e 238 240
e 238 243
e 238 780
e 238 782
e 239 241
e 239 430
e 239 579
e 240 993
e 241 430
e 241 579
e 241 580
e 241 1056
e 241 1058
e 242 243
e 242 394
e 242 776
e 242 782
e 242 936
e 243 256
e 243 787
e 244 380
e 244 382
e 244 397
e 244 568
e 245 384
e 245 405
e 246 247
e 246 250
e 246 1069
e 247 1069
e 248 272
e 248 274
e 248 1145
e 248 1146
e 249 260
e 249 262
e 249 1099
e 249 1149
e 249 1152
e 249 1169
e 250 271
e 250 275
e 250 1069
e 251 263
e 251 572
e 251 604
e 251 1127
e 251 1203
e 252 260
e 252 491
e 252 1169
e 253 284
e 253 544
e 253 1070
e 253 1170
e 254 805
e 254 863
e 254 1098
e 255 381
e 255 395
e 255 772
e 255 783
e 255 787
e 256 257
e 256 394
e 256 787
e 257 385
e 257 396
e 257 772
e 257 787
e 258 259
e 258 303
e 258 408
e 258 999
e 259 266
e 259 411
e 259 789
e 259 1016
e 260 460
e 260 490
e 260 491
e 260 1085
e 260 1182
e 261 262
e 261 264
e 261 601
e 261 1054
e 262 264
e 262 542
e 262 1054
e 262 1152
e 263 479
e 263 818
e 263 1097
e 264 601
e 264 1055
e 264 1071
e 264 1152
e 265 572
e 265 866
e 266 393
e 266 409
e 266 999
e 267 268
e 267 409
e 267 999
e 268 269
e 268 832
e 269 289
e 269 382
e 269 393
e 269 397
e 269 409
e 270 865
e 270 1068
e 271 272
e 271 275
e 271 1150
e 272 1146
e 273 274
e 273 1145
e 273 1148
e 274 1145
e 275 283
e 275 1069
e 275 1085
e 275 1147
e 275 1171
e 276 454
e 276 461
e 276 473
e 276 486
e 276 733
e 277 278
e 277 450
e 277 476
e 277 493
e 278 461
e 278 476
e 278 483
e 279 449
e 279 454
e 279 473
e 279 483
e 279 495
e 280 381
e 280 395
e 280 404
e 280 1003
e 281 282
e 281 289
e 281 393
e 282 286
e 282 399
e 282 1003
e 283 544
e 283 1070
e 283 1085
e 283 1170
e 284 590
e 284 864
e 284 866
e 285 438
e 285 638
e 285 639
e 285 722
e 285 735
e 285 1202
e 286 288
e 286 411
e 286 789
e 287 379
e 287 381
e 287 399
e 287 777
e 287 783
e 287 1003
e 288 379
e 288 399
e 288 777
e 288 781
e 288 1015
e 289 404
e 289 1003
e 290 292
e 290 872
e 290 912
e 291 292
e 291 370
e 291 811
e 292 912
e 293 295
e 293 296
e 293 297
e 293 425
e 293 501
e 293 586
e 293 1046
e 293 1047
e 294 295
e 294 298
e 294 1047
e 295 297
e 295 298
e 295 1047
e 296 297
e 296 298
e 296 425
e 296 658
e 296 1018
e 297 298
e 298 1018
e 298 1157
e 298 1158
e 299 370
e 299 810
e 299 996
e 300 301
e 300 1001
e 301 383
e 301 775
e 301 1001
e 303 1123
e 304 890
e 304 891
e 304 1077
e 305 810
e 305 996
e 306 403
e 306 410
e 306 871
e 307 863
e 307 865
e 307 1098
e 308 547
e 308 644
e 308 646
e 308 650
e 308 867
e 308 869
e 309 311
e 309 592
e 309 968
e 309 970
e 310 350
e 310 351
e 310 1096
e 311 353
e 311 354
e 312 313
e 312 355
e 312 550
e 313 355
e 313 550
e 313 553
e 313 1137
e 315 504
e 315 703
e 315 1107
e 316 1073
e 316 1074
e 316 1075
e 318 319
e 318 510
e 318 762
e 318 764
e 318 1061
e 318 1064
e 319 350
e 319 510
e 319 1061
e 320 321
e 320 626
e 320 682
e 320 684
e 320 923
e 320 1120
e 321 684
e 321 923
e 322 348
e 322 352
e 322 357
e 322 1087
e 323 325
e 323 326
e 323 328
e 323 346
e 323 347
e 323 666
e 324 326
e 324 327
e 324 330
e 324 332
e 324 875
e 325 326
e 325 328
e 325 346
e 325 347
e 325 666
e 326 327
e 326 332
e 326 346
e 326 666
e 327 666
e 327 875
e 328 666
e 329 330
e 329 331
e 329 332
e 329 333
e 329 930
e 329 950
e 330 331
e 330 332
e 330 333
e 331 333
e 332 666
e 332 928
e 332 931
e 334 335
e 334 336
e 334 831
e 335 831
e 336 344
e 336 345
e 336 419
e 336 421
e 336 828
e 336 929
e 336 1084
e 337 338
e 337 592
e 337 932
e 337 933
e 337 1167
e 338 592
e 338 1161
e 338 1164
e 338 1165
e 338 1167
e 339 340
e 339 582
e 340 341
e 340 342
e 340 582
e 340 615
e 340 1108
e 340 1113
e 340 1115
e 341 581
e 341 1108
e 342 615
e 343 344
e 343 345
e 343 759
e 343 1084
e 344 345
e 344 1084
e 345 417
e 345 419
e 345 546
e 346 347
e 348 349
e 348 1087
e 348 1095
e 349 1087
e 349 1088
e 349 1095
e 350 849
e 350 1045
e 350 1061
e 350 1096
e 351 1088
e 351 1090
e 351 1093
e 351 1094
e 351 1095
e 352 357
e 353 354
e 355 356
e 355 550
e 355 870
e 355 1056
e 356 870
e 356 1056
e 356 1057
e 357 1087
e 357 1091
e 358 481
e 358 802
e 358 803
e 359 368
e 359 443
e 359 501
e 359 586
e 359 795
e 359 1181
e 360 443
e 360 464
e 360 676
e 360 1191
e 361 469
e 361 472
e 361 608
e 361 753
e 362 440
e 362 673
e 362 674
e 362 675
e 362 697
e 363 792
e 364 702
e 364 817
e 364 822
e 364 992
e 365 416
e 365 625
e 365 667
e 365 792
e 365 835
e 365 1191
e 366 478
e 366 484
e 366 606
e 366 823
e 366 825
e 366 1125
e 367 555
e 367 556
e 367 793
e 367 1192
e 368 414
e 368 497
e 368 795
e 368 1190
e 369 814
e 369 878
e 369 879
e 370 811
e 370 812
e 370 883
e 370 996
e 370 1124
e 371 400
e 371 426
e 371 771
e 371 778
e 371 790
e 372 374
e 372 960
e 372 996
e 373 375
e 373 998
e 373 1124
e 374 375
e 374 959
e 375 376
e 375 959
e 375 1124
e 376 377
e 376 962
e 376 1124
e 377 378
e 377 898
e 377 962
e 377 1013
e 377 1124
e 378 1013
e 379 399
e 380 395
e 380 404
e 380 1006
e 381 783
e 382 397
e 382 832
e 383 410
e 383 775
e 383 871
e 384 784
e 384 786
e 385 394
e 385 396
e 385 926
e 386 387
e 386 406
e 386 517
e 386 600
e 386 926
e 386 1079
e 387 389
e 387 392
e 387 406
e 387 517
e 387 518
e 387 1015
e 388 391
e 388 570
e 388 1000
e 389 392
e 389 778
e 390 784
e 390 786
e 390 788
e 390 924
e 391 1000
e 392 774
e 392 778
e 393 409
e 394 936
e 395 780
e 395 787
e 395 1006
e 396 773
e 396 926
e 396 1079
e 397 404
e 398 779
e 398 785
e 398 788
e 398 791
e 398 1033
e 400 402
e 400 790
e 400 1014
e 401 410
e 401 775
e 402 567
e 402 790
e 403 412
e 403 779
e 403 1007
e 405 412
e 405 785
e 405 786
e 405 791
e 405 871
e 406 781
e 406 1015
e 406 1079
e 407 408
e 407 567
e 407 1012
e 407 1014
e 407 1123
e 408 1016
e 408 1123
e 410 871
e 411 789
e 411 1014
e 411 1016
e 412 779
e 412 791
e 412 871
e 413 607
e 413 618
e 413 619
e 413 674
e 413 979
e 414 455
e 414 456
e 414 494
e 414 497
e 415 436
e 415 482
e 415 496
e 415 620
e 415 670
e 415 806
e 415 808
e 415 990
e 415 995
e 416 432
e 416 484
e 416 625
e 416 816
e 416 823
e 417 418
e 417 419
e 417 546
e 418 419
e 418 546
e 418 547
e 418 974
e 418 975
e 419 420
e 419 421
e 419 975
e 419 977
e 419 1184
e 421 520
e 421 983
e 421 1184
e 422 424
e 422 750
e 422 751
e 422 752
e 422 757
e 423 653
e 423 750
e 423 751
e 423 869
e 423 974
e 423 1036
e 424 750
e 424 751
e 424 752
e 424 758
e 425 469
e 425 586
e 425 653
e 425 658
e 425 661
e 425 750
e 425 756
e 426 427
e 428 429
e 430 431
e 431 760
e 431 853
e 431 855
e 432 484
e 432 835
e 432 1125
e 433 477
e 433 478
e 433 606
e 433 980
e 434 445
e 434 459
e 434 502
e 434 1102
e 435 441
e 435 442
e 435 454
e 435 486
e 435 589
e 436 467
e 436 482
e 436 486
e 436 488
e 436 995
e 436 1201
e 437 450
e 437 462
e 437 471
e 437 623
e 438 496
e 438 638
e 438 1202
e 439 701
e 439 736
e 439 740
e 439 744
e 439 981
e 439 987
e 439 1039
e 439 1127
e 439 1168
e 439 1203
e 440 481
e 440 981
e 440 982
e 441 487
e 441 588
e 441 589
e 442 453
e 442 589
e 442 796
e 442 1201
e 443 447
e 443 469
e 443 586
e 443 1181
e 443 1191
e 445 459
e 445 502
e 445 710
e 445 794
e 445 1102
e 446 468
e 446 805
e 446 844
e 446 846
e 447 469
e 447 587
e 447 608
e 448 458
e 448 606
e 448 607
e 448 618
e 448 620
e 448 637
e 449 493
e 449 495
e 450 476
e 450 493
e 450 622
e 452 455
e 452 497
e 452 1178
e 452 1188
e 453 796
e 453 1201
e 454 487
e 455 456
e 455 497
e 455 1188
e 456 492
e 456 494
e 456 1188
e 456 1189
e 457 474
e 457 476
e 457 485
e 457 751
e 457 753
e 458 637
e 459 1103
e 460 466
e 460 475
e 460 490
e 460 1182
e 461 473
e 461 485
e 461 733
e 461 1185
e 462 471
e 462 472
e 462 474
e 462 476
e 463 493
e 463 495
e 463 588
e 463 622
e 464 465
e 464 641
e 464 676
e 464 1191
e 465 588
e 465 641
e 465 676
e 466 475
e 466 490
e 466 559
e 466 856
e 466 857
e 466 858
e 467 482
e 467 486
e 467 488
e 467 571
e 468 636
e 468 693
e 468 845
e 469 586
e 469 756
e 470 471
e 470 472
e 470 608
e 470 621
e 471 610
e 472 474
e 472 753
e 473 483
e 474 753
e 475 858
e 475 1189
e 476 485
e 477 980
e 478 606
e 478 1125
e 479 804
e 479 818
e 479 827
e 479 1097
e 481 697
e 481 803
e 481 981
e 482 807
e 483 493
e 484 1125
e 485 751
e 485 1185
e 486 488
e 486 536
e 486 537
e 486 571
e 486 733
e 486 1201
e 487 495
e 487 588
e 489 1103
e 490 558
e 490 559
e 490 584
e 490 1153
e 491 492
e 491 1182
e 492 494
e 492 1182
e 493 495
e 493 622
e 496 638
e 496 670
e 496 808
e 496 1202
e 497 1179
e 497 1190
e 498 499
e 498 535
e 498 1134
e 499 561
e 499 562
e 500 536
e 500 538
e 500 585
e 500 733
e 500 735
e 500 809
e 501 586
e 501 1046
e 502 710
e 502 711
e 503 695
e 503 707
e 503 978
e 503 987
e 503 1129
e 505 506
e 507 514
e 507 725
e 507 727
e 507 1132
e 508 509
e 508 510
e 508 601
e 508 725
e 508 764
e 508 769
e 509 513
e 509 523
e 509 723
e 509 724
e 509 725
e 509 726
e 510 725
e 510 764
e 511 512
e 511 604
e 511 724
e 512 515
e 512 724
e 513 515
e 513 724
e 514 725
e 514 1132
e 515 724
e 516 521
e 516 522
e 516 523
e 516 983
e 517 518
e 517 594
e 517 600
e 518 594
e 519 522
e 519 523
e 519 725
e 520 521
e 520 831
e 520 983
e 521 522
e 521 593
e 521 831
e 521 983
e 522 523
e 523 723
e 523 725
e 523 983
e 523 984
e 523 985
e 524 525
e 524 527
e 524 528
e 524 531
e 524 665
e 524 690
e 524 1009
e 525 526
e 525 527
e 525 706
e 525 1009
e 525 1105
e 526 1008
e 526 1009
e 526 1104
e 526 1105
e 526 1106
e 527 528
e 527 530
e 527 627
e 527 632
e 527 633
e 527 704
e 527 706
e 528 573
e 528 583
e 528 689
e 529 531
e 529 573
e 529 583
e 529 690
e 529 972
e 530 632
e 530 663
e 530 682
e 530 689
e 531 583
e 531 690
e 532 534
e 533 534
e 534 535
e 535 1134
e 536 537
e 536 733
e 537 571
e 537 585
e 538 722
e 538 735
e 538 1202
e 539 1099
e 539 1144
e 539 1145
e 539 1146
e 539 1149
e 540 541
e 541 748
e 541 851
e 541 852
e 541 942
e 541 1023
e 541 1026
e 541 1027
e 542 1054
e 542 1149
e 543 1099
e 543 1126
e 543 1145
e 543 1148
e 543 1151
e 544 1170
e 545 1148
e 545 1151
e 546 547
e 546 548
e 546 580
e 547 548
e 547 580
e 547 645
e 547 646
e 547 869
e 547 974
e 547 1057
e 549 551
e 549 553
e 549 560
e 549 564
e 550 553
e 550 870
e 550 1035
e 550 1036
e 551 553
e 551 554
e 551 560
e 552 553
e 552 554
e 552 560
e 552 564
e 552 911
e 553 554
e 553 564
e 553 911
e 553 1035
e 553 1137
e 554 560
e 554 911
e 555 558
e 555 559
e 555 793
e 555 848
e 556 557
e 556 559
e 556 856
e 556 1192
e 557 793
e 557 1192
e 558 559
e 558 1153
e 560 564
e 561 562
e 562 563
e 562 815
e 562 820
e 563 1135
e 565 728
e 565 731
e 565 914
e 565 1013
e 566 821
e 566 1004
e 566 1005
e 567 1014
e 568 1002
e 568 1006
e 569 878
e 569 888
e 569 889
e 569 1086
e 570 574
e 570 915
e 570 1000
e 570 1078
e 572 866
e 572 1147
e 573 583
e 573 689
e 573 972
e 574 576
e 574 578
e 574 915
e 574 917
e 575 577
e 576 577
e 576 578
e 576 917
e 576 1020
e 577 911
e 577 917
e 577 1020
e 577 1035
e 577 1156
e 578 917
e 580 1057
e 580 1058
e 581 595
e 581 600
e 581 602
e 581 664
e 581 947
e 581 1009
e 581 1011
e 582 1113
e 582 1115
e 584 848
e 584 1153
e 585 809
e 587 608
e 587 612
e 587 621
e 588 589
e 588 622
e 588 624
e 588 641
e 588 817
e 589 702
e 589 796
e 590 863
e 590 866
e 591 592
e 591 593
e 591 829
e 592 593
e 592 829
e 592 932
e 592 970
e 592 971
e 592 1164
e 593 831
e 594 595
e 594 596
e 594 597
e 594 598
e 594 599
e 594 600
e 594 603
e 595 598
e 595 599
e 595 600
e 595 602
e 595 603
e 596 597
e 596 598
e 596 599
e 597 599
e 598 599
e 600 664
e 600 926
e 601 763
e 601 764
e 601 765
e 601 769
e 601 1054
e 601 1055
e 602 603
e 604 605
e 604 680
e 604 724
e 604 732
e 604 736
e 604 1038
e 605 736
e 605 1038
e 606 607
e 606 825
e 607 980
e 609 611
e 609 612
e 609 676
e 610 611
e 610 612
e 610 621
e 610 623
e 611 623
e 611 624
e 612 621
e 613 614
e 613 686
e 613 691
e 613 692
e 613 1198
e 614 686
e 614 691
e 614 692
e 614 1197
e 615 616
e 615 694
e 615 1110
e 615 1115
e 615 1197
e 615 1198
e 616 617
e 616 692
e 616 761
e 616 1055
e 616 1071
e 616 1110
e 617 692
e 617 694
e 617 761
e 617 1021
e 618 619
e 618 620
e 619 620
e 619 670
e 619 671
e 620 637
e 620 640
e 620 806
e 620 824
e 622 623
e 622 624
e 623 624
e 625 641
e 625 816
e 625 817
e 625 1191
e 626 629
e 626 632
e 626 633
e 626 682
e 626 1120
e 627 628
e 627 633
e 627 704
e 628 629
e 628 633
e 629 630
e 629 631
e 629 633
e 630 631
e 632 633
e 632 682
e 634 678
e 634 681
e 634 1159
e 635 733
e 635 734
e 635 735
e 635 739
e 636 710
e 636 711
e 636 834
e 637 640
e 637 825
e 638 671
e 638 672
e 638 1076
e 639 672
e 639 673
e 639 681
e 639 696
e 639 735
e 639 1160
e 640 824
e 641 817
e 641 1191
e 642 647
e 642 649
e 642 651
e 642 868
e 643 644
e 643 649
e 643 651
e 643 867
e 644 649
e 644 650
e 644 867
e 645 646
e 645 647
e 645 648
e 645 867
e 645 868
e 645 870
e 646 650
e 647 648
e 647 649
e 648 868
e 649 650
e 649 651
e 651 867
e 651 868
e 652 653
e 652 654
e 652 660
e 652 770
e 652 1019
e 652 1154
e 653 655
e 653 660
e 653 661
e 653 662
e 653 750
e 653 1035
e 653 1036
e 653 1155
e 653 1156
e 654 656
e 654 659
e 654 770
e 654 797
e 654 798
e 654 1154
e 655 661
e 655 662
e 655 798
e 655 799
e 655 1019
e 656 659
e 656 770
e 657 658
e 657 661
e 657 1018
e 657 1020
e 657 1156
e 658 661
e 658 1018
e 659 770
e 659 798
e 659 1019
e 660 1155
e 661 798
e 661 1156
e 663 664
e 663 665
e 663 682
e 663 685
e 663 687
e 663 689
e 663 935
e 663 973
e 664 665
e 664 926
e 664 935
e 664 1009
e 665 690
e 665 973
e 665 1009
e 667 835
e 668 669
e 670 671
e 671 674
e 672 673
e 672 1076
e 673 674
e 673 675
e 673 696
e 673 1076
e 674 697
e 674 979
e 674 1076
e 675 696
e 675 982
e 677 678
e 677 679
e 677 737
e 677 738
e 677 741
e 677 745
e 677 1039
e 678 679
e 678 681
e 678 1039
e 678 1187
e 679 737
e 679 1187
e 680 736
e 680 1038
e 680 1203
e 681 735
e 681 737
e 681 1159
e 681 1160
e 682 684
e 682 923
e 682 935
e 683 788
e 683 874
e 683 924
e 683 1031
e 683 1033
e 684 923
e 685 687
e 685 688
e 685 690
e 685 973
e 686 691
e 686 1197
e 686 1198
e 687 688
e 687 689
e 688 689
e 688 690
e 689 690
e 689 972
e 690 972
e 690 973
e 692 694
e 692 1197
e 692 1198
e 693 711
e 693 846
e 693 847
e 694 1198
e 695 707
e 695 708
e 695 836
e 695 837
e 695 987
e 696 699
e 696 700
e 696 1160
e 697 802
e 697 979
e 698 699
e 698 700
e 698 701
e 698 981
e 698 982
e 699 700
e 699 982
e 700 701
e 700 1160
e 701 981
e 701 1039
e 702 796
e 702 817
e 702 992
e 703 705
e 703 706
e 703 1107
e 704 705
e 704 706
e 705 706
e 705 1130
e 705 1142
e 705 1143
e 706 1105
e 706 1107
e 706 1130
e 707 708
e 707 794
e 707 978
e 708 709
e 708 794
e 709 794
e 709 834
e 710 711
e 710 794
e 712 713
e 712 717
e 712 718
e 712 719
e 712 938
e 712 939
e 713 714
e 713 715
e 713 718
e 713 939
e 713 942
e 713 943
e 714 720
e 714 941
e 714 942
e 714 943
e 715 943
e 716 721
e 716 938
e 716 940
e 716 1174
e 717 718
e 717 719
e 717 720
e 717 941
e 717 942
e 718 941
e 718 943
e 719 938
e 719 942
e 719 1027
e 719 1029
e 720 941
e 720 942
e 721 938
e 721 940
e 722 735
e 722 1202
e 723 724
e 723 732
e 723 983
e 723 1184
e 724 732
e 725 726
e 725 727
e 725 1132
e 726 727
e 726 1132
e 727 1132
e 728 731
e 728 912
e 728 1138
e 729 730
e 729 916
e 730 911
e 730 913
e 730 914
e 730 916
e 730 917
e 731 914
e 731 1138
e 732 736
e 732 737
e 732 742
e 732 1184
e 732 1186
e 732 1204
e 733 734
e 733 735
e 733 1185
e 734 735
e 734 737
e 734 739
e 734 1185
e 734 1186
e 735 739
e 736 737
e 736 743
e 736 744
e 736 1203
e 737 743
e 737 745
e 737 1186
e 737 1187
e 738 741
e 738 745
e 738 1039
e 738 1168
e 740 744
e 740 745
e 740 1168
e 741 745
e 742 1186
e 742 1199
e 742 1200
e 742 1204
e 743 744
e 743 745
e 745 1168
e 746 747
e 746 748
e 746 1023
e 746 1024
e 746 1044
e 747 748
e 747 749
e 748 749
e 748 852
e 748 1023
e 748 1042
e 748 1043
e 748 1136
e 749 1041
e 749 1043
e 749 1052
e 750 752
e 750 755
e 750 756
e 750 757
e 750 758
e 751 753
e 751 754
e 751 758
e 751 974
e 751 977
e 752 757
e 753 754
e 753 755
e 753 756
e 754 755
e 754 758
e 755 756
e 755 758
e 759 760
e 759 1084
e 760 855
e 761 763
e 761 767
e 761 1021
e 761 1055
e 761 1083
e 762 764
e 762 765
e 762 766
e 762 939
e 762 940
e 762 1064
e 762 1080
e 763 765
e 763 766
e 763 767
e 763 768
e 763 1055
e 764 765
e 764 769
e 766 767
e 766 768
e 766 1080
e 766 1083
e 767 1083
e 770 1019
e 771 774
e 771 778
e 771 1015
e 772 773
e 772 777
e 772 787
e 773 781
e 773 1079
e 774 778
e 774 1015
e 775 1001
e 776 782
e 776 937
e 777 781
e 777 783
e 779 1007
e 780 787
e 780 993
e 781 1015
e 781 1079
e 784 902
e 785 786
e 785 788
e 785 791
e 792 795
e 792 1181
e 793 847
e 793 1192
e 794 978
e 795 1179
e 795 1180
e 795 1181
e 795 1190
e 795 1193
e 796 991
e 796 992
e 796 995
e 797 798
e 797 1154
e 797 1155
e 797 1156
e 798 799
e 798 1156
e 799 1019
e 800 801
e 800 1048
e 800 1050
e 801 1048
e 801 1050
e 802 979
e 802 980
e 803 981
e 804 805
e 804 843
e 804 1097
e 805 844
e 805 1098
e 805 1131
e 806 990
e 806 1118
e 807 808
e 807 809
e 808 809
e 808 1202
e 809 1202
e 811 812
e 811 813
e 811 814
e 812 813
e 812 882
e 813 814
e 813 880
e 813 881
e 814 879
e 814 880
e 815 820
e 816 817
e 816 822
e 816 823
e 817 822
e 818 826
e 818 827
e 818 1127
e 819 918
e 821 908
e 821 909
e 822 823
e 822 992
e 822 1118
e 823 824
e 823 1118
e 824 825
e 824 1118
e 826 827
e 826 836
e 826 989
e 826 1127
e 827 836
e 827 837
e 827 840
e 827 843
e 828 829
e 828 830
e 828 831
e 828 929
e 829 830
e 829 831
e 829 929
e 829 932
e 830 831
e 833 899
e 833 906
e 833 908
e 833 909
e 834 845
e 836 837
e 836 988
e 836 989
e 837 838
e 838 839
e 838 840
e 839 840
e 839 845
e 840 843
e 840 844
e 841 842
e 841 896
e 841 910
e 841 955
e 842 910
e 842 919
e 842 964
e 843 844
e 844 845
e 846 847
e 846 1131
e 847 848
e 847 1131
e 848 1131
e 848 1153
e 849 850
e 849 968
e 849 1061
e 849 1062
e 850 968
e 850 1062
e 850 1176
e 851 939
e 851 942
e 851 1021
e 852 1136
e 853 854
e 853 855
e 853 1051
e 854 855
e 855 1048
e 856 857
e 856 859
e 857 858
e 857 862
e 858 862
e 859 860
e 859 862
e 860 861
e 860 862
e 860 1194
e 861 862
e 861 1194
e 861 1195
e 863 1098
e 864 866
e 864 1170
e 864 1171
e 865 1070
e 866 1147
e 867 868
e 867 869
e 867 870
e 869 870
e 869 974
e 869 1036
e 870 1036
e 870 1057
e 872 873
e 872 912
e 873 1124
e 874 903
e 874 925
e 874 934
e 874 944
e 874 957
e 874 1031
e 875 876
e 877 1036
e 877 1037
e 878 1086
e 879 880
e 879 888
e 879 1017
e 880 881
e 880 886
e 880 1017
e 881 882
e 881 886
e 882 883
e 882 885
e 882 997
e 883 884
e 884 901
e 884 997
e 885 886
e 885 887
e 885 900
e 885 997
e 886 887
e 886 1017
e 887 895
e 887 1017
e 888 889
e 888 892
e 888 893
e 888 1017
e 889 890
e 889 891
e 889 892
e 889 1086
e 890 891
e 890 912
e 890 1077
e 892 893
e 892 1004
e 893 894
e 893 1004
e 893 1017
e 894 895
e 894 1017
e 895 899
e 895 900
e 896 953
e 896 955
e 896 964
e 897 948
e 897 953
e 897 954
e 897 956
e 897 964
e 898 919
e 898 922
e 898 961
e 898 962
e 899 900
e 900 901
e 900 906
e 900 997
e 902 924
e 902 937
e 903 904
e 903 924
e 903 945
e 904 905
e 904 937
e 904 945
e 905 934
e 905 936
e 905 937
e 905 945
e 906 907
e 907 908
e 909 1004
e 910 919
e 910 921
e 910 955
e 911 916
e 911 917
e 911 1035
e 911 1137
e 912 915
e 912 1077
e 912 1086
e 912 1138
e 913 914
e 913 916
e 914 917
e 914 1138
e 915 917
e 915 1078
e 915 1138
e 916 1137
e 917 1138
e 919 921
e 919 954
e 919 961
e 919 962
e 919 964
e 920 957
e 920 960
e 920 965
e 920 996
e 921 949
e 921 952
e 921 955
e 921 956
e 922 930
e 922 950
e 922 961
e 923 925
e 923 935
e 923 948
e 923 958
e 924 937
e 925 934
e 925 935
e 925 948
e 925 957
e 925 958
e 925 1030
e 925 1032
e 926 934
e 926 935
e 926 936
e 926 1030
e 926 1032
e 926 1034
e 926 1079
e 927 930
e 928 930
e 928 931
e 929 932
e 929 966
e 929 1084
e 930 931
e 930 950
e 932 933
e 932 966
e 932 1084
e 933 1084
e 933 1167
e 934 936
e 934 945
e 934 1030
e 935 1032
e 936 937
e 938 939
e 938 1029
e 938 1174
e 939 940
e 939 942
e 939 1021
e 939 1080
e 940 1062
e 940 1064
e 940 1174
e 941 943
e 942 1027
e 944 957
e 944 1031
e 944 1033
e 946 1009
e 946 1010
e 946 1011
e 947 1117
e 948 956
e 948 957
e 948 958
e 949 959
e 949 960
e 949 962
e 949 965
e 950 951
e 950 961
e 950 963
e 951 954
e 951 961
e 952 956
e 952 965
e 953 955
e 953 964
e 954 961
e 954 964
e 955 956
e 956 957
e 957 965
e 959 960
e 959 962
e 960 965
e 960 996
e 966 1084
e 967 969
e 967 970
e 968 970
e 969 970
e 970 971
e 970 1164
e 971 1164
e 974 975
e 974 977
e 975 976
e 975 977
e 976 977
e 977 1184
e 977 1185
e 977 1186
e 978 1129
e 979 980
e 981 982
e 983 986
e 983 1184
e 984 985
e 986 1184
e 987 988
e 987 989
e 987 1127
e 987 1129
e 988 989
e 989 1127
e 990 991
e 990 995
e 991 992
e 991 1118
e 992 1118
e 993 1002
e 993 1006
e 994 996
e 994 1007
e 995 1201
e 996 998
e 996 1124
e 998 1124
e 1000 1078
e 1008 1009
e 1008 1010
e 1008 1100
e 1008 1106
e 1008 1117
e 1009 1010
e 1009 1011
e 1010 1011
e 1010 1117
e 1011 1117
e 1012 1123
e 1013 1124
e 1014 1016
e 1018 1020
e 1018 1157
e 1018 1158
e 1020 1156
e 1020 1158
e 1021 1080
e 1021 1081
e 1021 1082
e 1021 1083
e 1022 1177
e 1023 1024
e 1023 1025
e 1023 1026
e 1024 1025
e 1024 1044
e 1025 1026
e 1027 1028
e 1027 1029
e 1029 1174
e 1030 1032
e 1030 1034
e 1031 1033
e 1032 1034
e 1035 1036
e 1035 1156
e 1036 1037
e 1039 1159
e 1039 1160
e 1039 1168
e 1040 1044
e 1041 1043
e 1041 1052
e 1042 1043
e 1042 1136
e 1043 1052
e 1045 1095
e 1045 1096
e 1046 1047
e 1048 1049
e 1048 1051
e 1049 1122
e 1053 1119
e 1053 1120
e 1053 1141
e 1054 1149
e 1055 1071
e 1056 1057
e 1056 1058
e 1057 1058
e 1059 1060
e 1059 1061
e 1059 1066
e 1059 1067
e 1060 1063
e 1060 1065
e 1060 1066
e 1060 1067
e 1061 1062
e 1061 1063
e 1061 1064
e 1061 1065
e 1061 1066
e 1061 1067
e 1062 1064
e 1062 1174
e 1062 1176
e 1063 1065
e 1063 1066
e 1065 1067
e 1068 1070
e 1068 1085
e 1070 1085
e 1071 1072
e 1071 1110
e 1071 1152
e 1072 1110
e 1072 1114
e 1073 1074
e 1073 1075
e 1074 1111
e 1074 1112
e 1077 1078
e 1080 1081
e 1080 1083
e 1081 1082
e 1081 1083
e 1087 1088
e 1087 1089
e 1087 1091
e 1088 1089
e 1088 1090
e 1088 1095
e 1089 1090
e 1091 1092
e 1092 1093
e 1092 1094
e 1093 1094
e 1095 1096
e 1098 1131
e 1099 1126
e 1099 1149
e 1100 1101
e 1100 1106
e 1100 1117
e 1101 1106
e 1101 1117
e 1104 1105
e 1104 1106
e 1104 1107
e 1105 1107
e 1108 1111
e 1108 1113
e 1108 1115
e 1109 1111
e 1109 1112
e 1109 1114
e 1109 1115
e 1109 1116
e 1110 1114
e 1110 1115
e 1111 1112
e 1111 1115
e 1112 1114
e 1112 1116
e 1113 1115
e 1114 1115
e 1119 1120
e 1121 1122
e 1126 1151
e 1127 1203
e 1128 1147
e 1128 1150
e 1133 1134
e 1133 1135
e 1133 1136
e 1134 1135
e 1135 1136
e 1139 1142
e 1139 1143
e 1140 1141
e 1140 1142
e 1140 1143
e 1142 1143
e 1144 1146
e 1145 1146
e 1147 1171
e 1148 1151
e 1152 1169
e 1154 1155
e 1155 1156
e 1157 1158
e 1159 1160
e 1161 1164
e 1161 1165
e 1161 1167
e 1161 1173
e 1162 1163
e 1162 1166
e 1162 1172
e 1162 1173
e 1163 1164
e 1163 1172
e 1163 1173
e 1164 1165
e 1164 1166
e 1164 1172
e 1164 1173
e 1165 1173
e 1166 1172
e 1166 1173
e 1170 1171
e 1174 1175
e 1174 1176
e 1175 1176
e 1178 1179
e 1178 1196
e 1179 1180
e 1180 1193
e 1180 1196
e 1181 1191
e 1182 1189
e 1183 1186
e 1183 1199
e 1183 1200
e 1184 1186
e 1185 1186
e 1186 1199
e 1186 1204
e 1188 1189
e 1193 1194
e 1193 1195
e 1194 1195
e 1195 1196
e 1197 1198
e 1199 1200
e 1200 1204
c k 5
